Instance: E151-12b.dat
Class:  1
150 --- number of customers (no depot)
12 --- number of vehicles
298 --- number of items
Capacity - height - width of vehicles
   200     40     20
Node - x - y - demand  Readytime Duetime
  0.00   35.00  35.00   0.00 0       551.00       
  1.00   41.00  49.00  10.00  75.00   93.00       
  2.00   35.00  17.00   7.00 257.00  273.00       
  3.00   55.00  45.00  13.00  85.00  100.00       
  4.00   55.00  20.00  19.00  10.00   50.00       
  5.00   15.00  30.00  26.00 102.00  118.00       
  6.00   25.00  30.00   3.00 311.00  326.00       
  7.00   20.00  50.00   5.00 264.00  279.00       
  8.00   10.00  43.00   9.00 402.00  411.00       
  9.00   55.00  60.00  16.00 120.00  130.00       
 10.00   30.00  60.00  16.00 111.00  116.00       
 11.00   20.00  65.00  12.00  40.00   50.00       
 12.00   50.00  35.00  19.00 301.00  311.00       
 13.00   30.00  25.00  23.00  36.00   53.00       
 14.00   15.00  10.00  20.00 332.00  338.00       
 15.00   30.00   5.00   8.00 101.00  119.00       
 16.00   10.00  20.00  19.00 217.00  235.00       
 17.00    5.00  30.00   2.00 283.00  297.00       
 18.00   20.00  40.00  12.00 204.00  220.00       
 19.00   15.00  60.00  17.00 445.00  454.00       
 20.00   45.00  65.00   9.00 441.00  459.00       
 21.00   45.00  20.00  11.00 426.00  444.00       
 22.00   45.00  10.00  18.00 172.00  192.00       
 23.00   55.00   5.00  29.00 257.00  265.00       
 24.00   65.00  35.00   3.00 345.00  356.00       
 25.00   65.00  20.00   6.00 340.00  355.00       
 26.00   45.00  30.00  17.00 376.00  386.00       
 27.00   35.00  40.00  16.00 433.00  441.00       
 28.00   41.00  37.00  16.00 368.00  377.00       
 29.00   64.00  42.00   9.00  35.00   50.00       
 30.00   40.00  60.00  21.00 401.00  412.00       
 31.00   31.00  52.00  27.00 190.00  205.00       
 32.00   35.00  69.00  23.00 292.00  305.00       
 33.00   53.00  52.00  11.00 156.00  173.00       
 34.00   65.00  55.00  14.00 398.00  409.00       
 35.00   63.00  65.00   8.00 261.00  279.00       
 36.00    2.00  60.00   5.00 139.00  154.00       
 37.00   20.00  20.00   8.00 365.00  376.00       
 38.00    5.00   5.00  16.00 178.00  196.00       
 39.00   60.00  12.00  31.00 270.00  278.00       
 40.00   40.00  25.00   9.00  56.00   68.00       
 41.00   42.00   7.00   5.00  27.00   50.00       
 42.00   24.00  12.00   5.00 149.00  158.00       
 43.00   23.00   3.00   7.00 333.00  342.00       
 44.00   11.00  14.00  18.00 125.00  145.00       
 45.00    6.00  38.00  16.00 109.00  121.00       
 46.00    2.00  48.00   1.00 217.00  222.00       
 47.00    8.00  56.00  27.00 156.00  176.00       
 48.00   13.00  52.00  36.00 154.00  167.00       
 49.00    6.00  68.00  30.00  66.00   79.00       
 50.00   47.00  47.00  13.00 113.00  119.00       
 51.00   49.00  58.00  10.00  51.00   56.00       
 52.00   27.00  43.00   9.00 148.00  154.00       
 53.00   37.00  31.00  14.00 433.00  449.00       
 54.00   57.00  29.00  18.00 459.00  464.00       
 55.00   63.00  23.00   2.00 149.00  157.00       
 56.00   53.00  12.00   6.00 366.00  386.00       
 57.00   32.00  12.00   7.00  65.00   80.00       
 58.00   36.00  26.00  18.00 101.00  118.00       
 59.00   21.00  24.00  28.00   9.00   50.00       
 60.00   17.00  34.00   3.00 406.00  421.00       
 61.00   12.00  24.00  13.00 305.00  322.00       
 62.00   24.00  58.00  19.00 259.00  279.00       
 63.00   27.00  69.00  10.00 437.00  456.00       
 64.00   15.00  77.00   9.00 292.00  308.00       
 65.00   62.00  77.00  20.00 282.00  293.00       
 66.00   49.00  73.00  25.00 293.00  311.00       
 67.00   67.00   5.00  25.00  65.00   76.00       
 68.00   56.00  39.00  36.00 339.00  347.00       
 69.00   37.00  47.00   6.00 427.00  442.00       
 70.00   37.00  56.00   5.00 296.00  305.00       
 71.00   57.00  68.00  15.00 222.00  229.00       
 72.00   47.00  16.00  25.00 300.00  311.00       
 73.00   44.00  17.00   9.00 350.00  365.00       
 74.00   46.00  13.00   8.00 355.00  365.00       
 75.00   49.00  11.00  18.00   6.00   50.00       
 76.00   49.00  42.00  13.00 380.00  399.00       
 77.00   53.00  43.00  14.00 368.00  386.00       
 78.00   61.00  52.00   3.00 269.00  279.00       
 79.00   57.00  48.00  23.00 124.00  141.00       
 80.00   56.00  37.00   6.00 276.00  288.00       
 81.00   55.00  54.00  26.00 103.00  108.00       
 82.00   15.00  47.00  16.00 444.00  449.00       
 83.00   14.00  37.00  11.00 427.00  438.00       
 84.00   11.00  31.00   7.00 358.00  371.00       
 85.00   16.00  22.00  41.00 262.00  280.00       
 86.00    4.00  18.00  35.00  16.00   50.00       
 87.00   28.00  18.00  26.00 392.00  404.00       
 88.00   26.00  52.00   9.00 168.00  186.00       
 89.00   26.00  35.00  15.00 257.00  266.00       
 90.00   31.00  67.00   3.00 390.00  410.00       
 91.00   15.00  19.00   1.00 211.00  229.00       
 92.00   22.00  22.00   2.00 375.00  387.00       
 93.00   18.00  24.00  22.00 184.00  201.00       
 94.00   26.00  27.00  27.00 459.00  464.00       
 95.00   25.00  24.00  20.00 169.00  181.00       
 96.00   22.00  27.00  11.00  90.00   97.00       
 97.00   25.00  21.00  12.00  97.00  102.00       
 98.00   19.00  21.00  10.00 299.00  315.00       
 99.00   20.00  26.00   9.00 130.00  141.00       
100.00   18.00  18.00  17.00  56.00   70.00       
101.00   37.00  52.00   7.00  26.00   50.00       
102.00   49.00  49.00  30.00  27.00   50.00       
103.00   52.00  64.00  16.00 153.00  172.00       
104.00   20.00  26.00   9.00 324.00  333.00       
105.00   40.00  30.00  21.00 416.00  435.00       
106.00   21.00  47.00  15.00  75.00   81.00       
107.00   17.00  63.00  19.00 322.00  338.00       
108.00   31.00  62.00  23.00 438.00  448.00       
109.00   52.00  33.00  11.00 246.00  256.00       
110.00   51.00  21.00   5.00 254.00  262.00       
111.00   42.00  41.00  19.00 190.00  198.00       
112.00   31.00  32.00  29.00 143.00  159.00       
113.00    5.00  25.00  23.00 310.00  319.00       
114.00   12.00  42.00  21.00 456.00  466.00       
115.00   36.00  16.00  10.00 248.00  263.00       
116.00   52.00  41.00  15.00 391.00  402.00       
117.00   27.00  23.00   3.00 384.00  394.00       
118.00   17.00  33.00  41.00 355.00  369.00       
119.00   13.00  13.00   9.00 407.00  422.00       
120.00   57.00  58.00  28.00 132.00  142.00       
121.00   62.00  42.00   8.00  71.00   82.00       
122.00   42.00  57.00   8.00 418.00  434.00       
123.00   16.00  57.00  16.00 302.00  313.00       
124.00    8.00  52.00  10.00 372.00  391.00       
125.00    7.00  38.00  28.00 265.00  284.00       
126.00   27.00  68.00   7.00  80.00   99.00       
127.00   30.00  48.00  15.00 288.00  302.00       
128.00   43.00  67.00  14.00 418.00  424.00       
129.00   58.00  48.00   6.00 254.00  273.00       
130.00   58.00  27.00  19.00 396.00  415.00       
131.00   37.00  69.00  11.00 321.00  330.00       
132.00   38.00  46.00  12.00 255.00  261.00       
133.00   46.00  10.00  23.00 340.00  360.00       
134.00   61.00  33.00  26.00 242.00  250.00       
135.00   62.00  63.00  17.00 254.00  261.00       
136.00   63.00  69.00   6.00 336.00  348.00       
137.00   32.00  22.00   9.00 146.00  158.00       
138.00   45.00  35.00  15.00 109.00  121.00       
139.00   59.00  15.00  14.00 358.00  375.00       
140.00    5.00   6.00   7.00 222.00  237.00       
141.00   10.00  17.00  27.00 147.00  162.00       
142.00   21.00  10.00  13.00  30.00   50.00       
143.00    5.00  64.00  11.00 173.00  187.00       
144.00   30.00  15.00  16.00 346.00  364.00       
145.00   39.00  10.00  10.00 285.00  305.00       
146.00   32.00  39.00   5.00 443.00  448.00       
147.00   25.00  32.00  25.00 117.00  127.00       
148.00   25.00  55.00  17.00  99.00  106.00       
149.00   48.00  28.00  18.00 445.00  457.00       
150.00   56.00  37.00  10.00 353.00  359.00       
Node - number of items - h - w for each item
    0   0
    1   1   14    5
    2   1   11    5
    3   2    9    8   23    2
    4   2    4   10   12    2
    5   3    6   13   14    7    9    6
    6   1    6   12
    7   2    4   14   13    5
    8   3    5    8   15    7   15    3
    9   1   17    4
   10   2    7   16    7   15
   11   2    6   11   32    3
   12   1   13    4
   13   3    6    8   23    2   22    2
   14   1   19    2
   15   2    6   13   11    4
   16   2   16    7   14    4
   17   1    6   14
   18   2    5    6   29    2
   19   1    7   13
   20   3    6   12   15    6   31    3
   21   1    7   13
   22   2    4    8    5    6
   23   2   14    6   18    3
   24   3   13    8   15    7   29    4
   25   3    6   12   10    6   29    4
   26   2   31    4   23    3
   27   3    8   16    8   15   10    4
   28   1    6   15
   29   3    9    7   11    5   15    4
   30   3    5   12   10    8   22    3
   31   1   28    3
   32   1   14    8
   33   3   25    3   14    3   21    2
   34   2    5    8    5    7
   35   3    4    6    9    5   30    2
   36   2   16    4   15    4
   37   3    8   14   14    4   29    2
   38   2   32    4   30    4
   39   1   12    6
   40   2   16    7    5    6
   41   3    6   13   23    4   22    3
   42   2   30    3   29    2
   43   1    8   10
   44   2   14    5   26    2
   45   1   31    3
   46   1    8   11
   47   3    8    6    8    5   26    4
   48   1    7   11
   49   1   29    4
   50   3    5    9    8    7   10    6
   51   1   20    3
   52   1   10    7
   53   3    7   10   27    4   25    4
   54   3    6   13    8    9   21    3
   55   3   13    5   13    4   16    3
   56   1   27    3
   57   2    5    7   13    4
   58   3    5    9    7    7   25    3
   59   3    6   15   12    4   13    3
   60   1   28    3
   61   2   12    7   20    3
   62   3    8    8   15    6   21    4
   63   3    5   16    6   15   23    4
   64   2    8   16    8    7
   65   3    6   15    8   14    8    4
   66   1    9    7
   67   3    6   13   10    4   13    3
   68   2   12    7   16    3
   69   1    6   10
   70   2    6    6   15    5
   71   2    7   11   32    3
   72   1   24    2
   73   2    5   11   28    2
   74   2   12    6   22    4
   75   3   13    7   27    4   16    4
   76   3   14    7    9    6   23    4
   77   2    9    5   13    4
   78   2    8   13   12    6
   79   3    6   11    7    8   30    4
   80   3    8   14    4    9   10    6
   81   1    7   15
   82   3   14    8    4    8   20    4
   83   1   10    6
   84   2    8   11    5    9
   85   2    6   13   19    2
   86   1   30    3
   87   1   12    6
   88   2    7   13   23    2
   89   3    7   10   21    4   27    2
   90   2    5   10    5    6
   91   2   14    7   12    5
   92   1   12    6
   93   1   14    2
   94   2   11    5   21    4
   95   3    6    9   22    3   15    3
   96   3    7   15    6   14   25    2
   97   3    5    8    8    7    8    6
   98   3    6   15    5    7    5    7
   99   2   11    6   13    4
  100   1   18    4
  101   2    9    5   24    3
  102   2    7    9   31    3
  103   1    5    7
  104   1   12    7
  105   3    7   16    8    6   18    4
  106   1   15    4
  107   1    6   14
  108   2   14    7   24    2
  109   2    6   13    7   12
  110   3   16    7   11    6   17    3
  111   3    6   11    9    7   24    3
  112   3    8   13    8    7   31    3
  113   1   13    3
  114   1    6    9
  115   2    5   11   15    7
  116   1   11    8
  117   2   12    8    9    6
  118   1   29    3
  119   2   15    6   25    2
  120   3   14    5   32    3   28    3
  121   1   21    2
  122   1   16    3
  123   3   13    7   10    7   15    6
  124   3    5    7    4    7   23    3
  125   3    7   13    7   10   30    4
  126   1    9    4
  127   3    5   16   23    3   21    3
  128   1   12    8
  129   2   11    8   23    2
  130   2    5    7   29    2
  131   3    6   13   13    6   31    3
  132   1    5   12
  133   1    6    7
  134   1    6    7
  135   1    4   14
  136   1    4   14
  137   3   10    6   15    4   25    3
  138   1   12    8
  139   3   12    7   25    3   14    3
  140   2    6   14    8    6
  141   2    5   13   11    6
  142   3    8    7   15    5   22    3
  143   3    8   15   19    3   18    2
  144   3    7   15    7   10   13    6
  145   1   15    4
  146   2   10    7   15    3
  147   2    8    9   25    4
  148   1   24    3
  149   2    7    6   14    5
  150   3    9    7   16    6   15    5
